20
10
658929
0
0
40 67 50 51 58 62 38 46 36 48
1
0
39 53 41 77 57 39 56 32 43 59
2
0
56 40 62 40 55 50 36 52 49 48
3
0
43 45 38 45 53 34 45 45 35 54
4
0
66 51 42 60 47 67 56 47 56 40
5
0
55 41 55 45 57 48 61 46 49 39
6
0
46 51 58 54 71 57 59 40 46 57
7
0
50 46 55 42 52 63 44 46 33 37
8
0
59 69 50 38 56 32 43 42 49 53
9
0
41 41 41 57 41 49 51 52 29 61
10
0
38 51 51 59 33 42 41 48 69 53
11
0
35 49 47 56 40 21 50 58 69 55
12
0
45 36 58 56 43 52 56 45 64 46
13
0
43 32 61 52 55 47 48 59 64 62
14
0
58 41 47 54 44 41 51 61 53 40
15
0
56 54 48 63 46 49 41 54 42 53
16
0
51 40 49 59 62 50 58 76 55 66
17
0
40 46 55 56 50 39 46 56 57 33
18
0
45 42 48 49 41 50 45 43 57 27
19
0
43 57 40 66 52 65 46 45 65 51
